\ Model qkp01
\ LP format - for model browsing. Use MPS format to capture full model detail.
Maximize
  35 x_3 + 14 x_4 + 4 x_7 + 14 x_8 + 41 x_12 + 48 x_28 + 27 x_29 + 11 x_35
   + 34 x_36 + 27 x_40 + 35 x_44 + 42 x_48 + 18 x_55 + 13 x_56 + 45 x_57
   + 38 x_63 + 25 x_65 + 40 x_66 + 20 x_68 + 45 x_70 + 10 x_73 + 22 x_76
   + 37 x_78 + 35 x_83 + 42 x_84 + 45 x_86 + 41 x_92 + 50 x_93 + 24 x_95
   + 2 x_99 + 9 x_100 + [ 60 x_1 * x_6 + 18 x_1 * x_7 + 52 x_1 * x_10
   + 24 x_1 * x_11 + 42 x_1 * x_14 + 50 x_1 * x_15 + 48 x_1 * x_16
   + 22 x_1 * x_20 + 64 x_1 * x_29 + 92 x_1 * x_30 + 32 x_1 * x_37
   + 54 x_1 * x_38 + 60 x_1 * x_43 + 98 x_1 * x_44 + 66 x_1 * x_51
   + 74 x_1 * x_59 + 76 x_1 * x_60 + 8 x_1 * x_63 + 22 x_1 * x_69
   + 60 x_1 * x_70 + 60 x_1 * x_72 + 82 x_1 * x_77 + 28 x_1 * x_83
   + 18 x_1 * x_84 + 42 x_1 * x_94 + 64 x_1 * x_96 + 64 x_1 * x_99
   + 54 x_2 * x_5 + 66 x_2 * x_7 + 94 x_2 * x_8 + 98 x_2 * x_9
   + 42 x_2 * x_10 + 88 x_2 * x_11 + 72 x_2 * x_12 + 32 x_2 * x_24
   + 12 x_2 * x_38 + 48 x_2 * x_39 + 20 x_2 * x_40 + 16 x_2 * x_42
   + 2 x_2 * x_48 + 74 x_2 * x_63 + 2 x_2 * x_68 + 58 x_2 * x_70
   + 46 x_2 * x_82 + 94 x_2 * x_88 + 24 x_2 * x_92 + 62 x_2 * x_93
   + 4 x_2 * x_98 + 4 x_3 * x_5 + 16 x_3 * x_11 + 14 x_3 * x_13
   + 56 x_3 * x_14 + 26 x_3 * x_17 + 66 x_3 * x_23 + 18 x_3 * x_32
   + 74 x_3 * x_40 + 92 x_3 * x_44 + 28 x_3 * x_48 + 26 x_3 * x_49
   + 96 x_3 * x_53 + 52 x_3 * x_63 + 2 x_3 * x_66 + 76 x_3 * x_67
   + 88 x_3 * x_68 + 34 x_3 * x_81 + 80 x_3 * x_85 + 74 x_3 * x_86
   + 94 x_3 * x_90 + 80 x_3 * x_91 + 30 x_3 * x_94 + 8 x_3 * x_99
   + 30 x_4 * x_7 + 60 x_4 * x_12 + 90 x_4 * x_13 + 84 x_4 * x_21
   + 82 x_4 * x_23 + 32 x_4 * x_25 + 8 x_4 * x_26 + 50 x_4 * x_27
   + 56 x_4 * x_30 + 78 x_4 * x_37 + 78 x_4 * x_38 + 32 x_4 * x_40
   + 84 x_4 * x_43 + 6 x_4 * x_44 + 56 x_4 * x_48 + 18 x_4 * x_49
   + 50 x_4 * x_51 + 88 x_4 * x_53 + 6 x_4 * x_55 + 54 x_4 * x_60
   + 24 x_4 * x_61 + 96 x_4 * x_66 + 40 x_4 * x_71 + 84 x_4 * x_72
   + 46 x_4 * x_80 + 62 x_4 * x_85 + 18 x_4 * x_86 + 98 x_4 * x_90
   + 56 x_4 * x_91 + 24 x_4 * x_95 + 12 x_5 * x_13 + 56 x_5 * x_25
   + 12 x_5 * x_26 + 34 x_5 * x_31 + 24 x_5 * x_37 + 98 x_5 * x_38
   + 52 x_5 * x_44 + 26 x_5 * x_45 + 82 x_5 * x_49 + 74 x_5 * x_50
   + 88 x_5 * x_51 + 80 x_5 * x_53 + 68 x_5 * x_59 + 2 x_5 * x_61
   + 8 x_5 * x_64 + 90 x_5 * x_69 + 38 x_5 * x_76 + 46 x_5 * x_79
   + 60 x_5 * x_83 + 96 x_5 * x_87 + 66 x_5 * x_97 + 92 x_6 * x_7
   + 52 x_6 * x_12 + 46 x_6 * x_13 + 60 x_6 * x_24 + 56 x_6 * x_26
   + 4 x_6 * x_27 + 72 x_6 * x_28 + 6 x_6 * x_34 + 10 x_6 * x_37
   + 76 x_6 * x_57 + 56 x_6 * x_68 + 72 x_6 * x_70 + 98 x_6 * x_71
   + 18 x_6 * x_74 + 22 x_6 * x_75 + 6 x_6 * x_76 + 58 x_6 * x_81
   + 88 x_6 * x_83 + 46 x_6 * x_84 + 54 x_6 * x_87 + 80 x_6 * x_89
   + 62 x_7 * x_8 + 96 x_7 * x_11 + 4 x_7 * x_14 + 52 x_7 * x_23
   + 30 x_7 * x_32 + 44 x_7 * x_34 + 38 x_7 * x_35 + 56 x_7 * x_36
   + 86 x_7 * x_50 + 28 x_7 * x_52 + 6 x_7 * x_54 + 18 x_7 * x_57
   + 94 x_7 * x_61 + 50 x_7 * x_64 + 58 x_7 * x_65 + 76 x_7 * x_71
   + 6 x_7 * x_73 + 92 x_7 * x_76 + 22 x_7 * x_84 + 62 x_7 * x_85
   + 78 x_7 * x_87 + 28 x_7 * x_90 + 48 x_7 * x_95 + 82 x_7 * x_97
   + 72 x_8 * x_9 + 64 x_8 * x_12 + 62 x_8 * x_17 + 74 x_8 * x_19
   + 6 x_8 * x_20 + 90 x_8 * x_23 + 94 x_8 * x_24 + 52 x_8 * x_25
   + 30 x_8 * x_29 + 12 x_8 * x_31 + 6 x_8 * x_34 + 6 x_8 * x_44
   + 96 x_8 * x_45 + 74 x_8 * x_47 + 36 x_8 * x_60 + 88 x_8 * x_67
   + 54 x_8 * x_68 + 86 x_8 * x_72 + 44 x_8 * x_75 + 42 x_8 * x_76
   + 62 x_8 * x_87 + 30 x_8 * x_92 + 76 x_8 * x_94 + 42 x_8 * x_96
   + 46 x_8 * x_99 + 94 x_9 * x_13 + 28 x_9 * x_14 + 90 x_9 * x_16
   + 16 x_9 * x_18 + 40 x_9 * x_20 + 20 x_9 * x_24 + 70 x_9 * x_34
   + 32 x_9 * x_37 + 48 x_9 * x_40 + 2 x_9 * x_43 + 76 x_9 * x_51
   + 10 x_9 * x_52 + 58 x_9 * x_54 + 22 x_9 * x_55 + 40 x_9 * x_56
   + 10 x_9 * x_57 + 24 x_9 * x_58 + 12 x_9 * x_65 + 10 x_9 * x_68
   + 34 x_9 * x_69 + 20 x_9 * x_73 + 58 x_9 * x_77 + 8 x_9 * x_85
   + 24 x_9 * x_90 + 6 x_9 * x_96 + 32 x_9 * x_97 + 92 x_9 * x_100
   + 40 x_10 * x_11 + 96 x_10 * x_17 + 88 x_10 * x_18 + 8 x_10 * x_19
   + 64 x_10 * x_20 + 50 x_10 * x_22 + 8 x_10 * x_25 + 44 x_10 * x_26
   + 80 x_10 * x_31 + 62 x_10 * x_32 + 56 x_10 * x_33 + 82 x_10 * x_35
   + 8 x_10 * x_36 + 36 x_10 * x_45 + 12 x_10 * x_47 + 22 x_10 * x_48
   + 34 x_10 * x_55 + 62 x_10 * x_60 + 24 x_10 * x_64 + 98 x_10 * x_66
   + 24 x_10 * x_69 + 64 x_10 * x_78 + 58 x_10 * x_79 + 42 x_10 * x_82
   + 38 x_10 * x_84 + 68 x_10 * x_85 + 68 x_10 * x_86 + 38 x_10 * x_91
   + 68 x_10 * x_99 + 72 x_10 * x_100 + 82 x_11 * x_16 + 82 x_11 * x_19
   + 68 x_11 * x_22 + 92 x_11 * x_24 + 10 x_11 * x_25 + 66 x_11 * x_28
   + 62 x_11 * x_29 + 52 x_11 * x_33 + 62 x_11 * x_37 + 16 x_11 * x_38
   + 18 x_11 * x_50 + 66 x_11 * x_51 + 76 x_11 * x_60 + 26 x_11 * x_62
   + 84 x_11 * x_68 + 54 x_11 * x_79 + 92 x_11 * x_80 + 76 x_11 * x_81
   + 30 x_11 * x_84 + 80 x_11 * x_87 + 88 x_11 * x_88 + 52 x_11 * x_89
   + 52 x_11 * x_91 + 100 x_11 * x_94 + 42 x_11 * x_97 + 64 x_12 * x_15
   + 78 x_12 * x_16 + 34 x_12 * x_19 + 98 x_12 * x_22 + 100 x_12 * x_28
   + 60 x_12 * x_31 + 4 x_12 * x_32 + 72 x_12 * x_34 + 6 x_12 * x_38
   + 92 x_12 * x_40 + 98 x_12 * x_41 + 10 x_12 * x_42 + 8 x_12 * x_51
   + 46 x_12 * x_54 + 14 x_12 * x_64 + 90 x_12 * x_67 + 94 x_12 * x_70
   + 100 x_12 * x_74 + 30 x_12 * x_82 + 46 x_12 * x_90 + 28 x_13 * x_15
   + 52 x_13 * x_22 + 42 x_13 * x_23 + 92 x_13 * x_24 + 20 x_13 * x_30
   + 98 x_13 * x_31 + 36 x_13 * x_32 + 38 x_13 * x_36 + 30 x_13 * x_52
   + 100 x_13 * x_58 + 10 x_13 * x_59 + 98 x_13 * x_60 + 82 x_13 * x_73
   + 70 x_13 * x_79 + 68 x_13 * x_84 + 58 x_13 * x_97 + 96 x_14 * x_17
   + 82 x_14 * x_23 + 86 x_14 * x_38 + 88 x_14 * x_44 + 44 x_14 * x_50
   + 40 x_14 * x_59 + 58 x_14 * x_72 + 22 x_14 * x_73 + 22 x_14 * x_79
   + 76 x_14 * x_80 + 30 x_14 * x_81 + 52 x_14 * x_85 + 34 x_14 * x_90
   + 32 x_14 * x_95 + 58 x_14 * x_97 + 48 x_15 * x_19 + 20 x_15 * x_22
   + 78 x_15 * x_23 + 46 x_15 * x_24 + 44 x_15 * x_25 + 78 x_15 * x_27
   + 40 x_15 * x_29 + 84 x_15 * x_31 + 74 x_15 * x_36 + 12 x_15 * x_41
   + 6 x_15 * x_53 + 24 x_15 * x_64 + 62 x_15 * x_71 + 18 x_15 * x_74
   + 70 x_15 * x_76 + 10 x_15 * x_82 + 40 x_15 * x_84 + 20 x_15 * x_89
   + 92 x_15 * x_91 + 48 x_15 * x_94 + 28 x_16 * x_20 + 50 x_16 * x_31
   + 68 x_16 * x_33 + 94 x_16 * x_37 + 68 x_16 * x_44 + 62 x_16 * x_46
   + 62 x_16 * x_50 + 88 x_16 * x_57 + 88 x_16 * x_58 + 100 x_16 * x_63
   + 92 x_16 * x_65 + 44 x_16 * x_66 + 62 x_16 * x_77 + 18 x_16 * x_78
   + 86 x_16 * x_82 + 76 x_16 * x_90 + 54 x_16 * x_91 + 84 x_16 * x_94
   + 14 x_16 * x_95 + 78 x_16 * x_96 + 54 x_16 * x_100 + 68 x_17 * x_19
   + 20 x_17 * x_21 + 94 x_17 * x_22 + 76 x_17 * x_27 + 92 x_17 * x_28
   + 84 x_17 * x_29 + 38 x_17 * x_30 + 82 x_17 * x_33 + 58 x_17 * x_34
   + 28 x_17 * x_36 + 84 x_17 * x_41 + 82 x_17 * x_43 + 20 x_17 * x_44
   + 6 x_17 * x_47 + 28 x_17 * x_49 + 66 x_17 * x_52 + 6 x_17 * x_53
   + 68 x_17 * x_57 + 6 x_17 * x_58 + 26 x_17 * x_64 + 20 x_17 * x_66
   + 10 x_17 * x_71 + 2 x_17 * x_76 + 94 x_17 * x_77 + 40 x_17 * x_79
   + 10 x_17 * x_82 + 34 x_17 * x_83 + 64 x_17 * x_93 + 22 x_17 * x_99
   + 76 x_17 * x_100 + 90 x_18 * x_24 + 36 x_18 * x_31 + 64 x_18 * x_34
   + 54 x_18 * x_40 + 52 x_18 * x_47 + 26 x_18 * x_49 + 74 x_18 * x_52
   + 100 x_18 * x_54 + 72 x_18 * x_55 + 8 x_18 * x_58 + 54 x_18 * x_60
   + 18 x_18 * x_64 + 96 x_18 * x_73 + 70 x_18 * x_78 + 64 x_18 * x_84
   + 86 x_18 * x_85 + 88 x_18 * x_89 + 12 x_18 * x_91 + 2 x_18 * x_96
   + 32 x_18 * x_97 + 6 x_19 * x_21 + 38 x_19 * x_22 + 76 x_19 * x_25
   + 82 x_19 * x_26 + 2 x_19 * x_37 + 88 x_19 * x_40 + 42 x_19 * x_49
   + 46 x_19 * x_50 + 16 x_19 * x_59 + 46 x_19 * x_66 + 96 x_19 * x_75
   + 82 x_19 * x_85 + 70 x_19 * x_86 + 94 x_19 * x_96 + 92 x_20 * x_30
   + 58 x_20 * x_31 + 36 x_20 * x_35 + 38 x_20 * x_37 + 88 x_20 * x_42
   + 64 x_20 * x_54 + 2 x_20 * x_67 + 60 x_20 * x_74 + 34 x_20 * x_76
   + 100 x_20 * x_78 + 78 x_20 * x_81 + 28 x_20 * x_84 + 26 x_20 * x_89
   + 2 x_20 * x_92 + 66 x_20 * x_98 + 10 x_20 * x_99 + 26 x_20 * x_100
   + 44 x_21 * x_33 + 78 x_21 * x_36 + 54 x_21 * x_37 + 48 x_21 * x_41
   + 98 x_21 * x_47 + 46 x_21 * x_58 + 100 x_21 * x_60 + 90 x_21 * x_61
   + 22 x_21 * x_63 + 4 x_21 * x_67 + 26 x_21 * x_71 + 30 x_21 * x_77
   + 98 x_21 * x_94 + 50 x_21 * x_100 + 42 x_22 * x_36 + 42 x_22 * x_37
   + 76 x_22 * x_38 + 16 x_22 * x_41 + 64 x_22 * x_42 + 16 x_22 * x_46
   + 66 x_22 * x_48 + 68 x_22 * x_57 + 50 x_22 * x_59 + 14 x_22 * x_61
   + 84 x_22 * x_64 + 34 x_22 * x_65 + 62 x_22 * x_71 + 92 x_22 * x_72
   + 44 x_22 * x_76 + 8 x_22 * x_80 + 2 x_22 * x_84 + 58 x_22 * x_87
   + 32 x_22 * x_88 + 62 x_22 * x_90 + 22 x_22 * x_91 + 76 x_22 * x_92
   + 10 x_22 * x_95 + 50 x_22 * x_99 + 2 x_23 * x_27 + 44 x_23 * x_28
   + 14 x_23 * x_31 + 42 x_23 * x_33 + 32 x_23 * x_36 + 38 x_23 * x_40
   + 98 x_23 * x_48 + 16 x_23 * x_50 + 42 x_23 * x_54 + 50 x_23 * x_57
   + 36 x_23 * x_59 + 92 x_23 * x_60 + 52 x_23 * x_61 + 100 x_23 * x_62
   + 8 x_23 * x_66 + 20 x_23 * x_67 + 28 x_23 * x_68 + 96 x_23 * x_75
   + 92 x_23 * x_79 + 12 x_23 * x_80 + 66 x_23 * x_85 + 50 x_23 * x_87
   + 72 x_23 * x_89 + 98 x_23 * x_90 + 42 x_23 * x_92 + 46 x_23 * x_93
   + 96 x_24 * x_29 + 68 x_24 * x_30 + 44 x_24 * x_31 + 28 x_24 * x_32
   + 24 x_24 * x_34 + 44 x_24 * x_35 + 74 x_24 * x_37 + 20 x_24 * x_38
   + 36 x_24 * x_44 + 22 x_24 * x_46 + 40 x_24 * x_47 + 56 x_24 * x_49
   + 4 x_24 * x_54 + 88 x_24 * x_55 + 56 x_24 * x_59 + 44 x_24 * x_61
   + 48 x_24 * x_62 + 94 x_24 * x_70 + 94 x_24 * x_73 + 96 x_24 * x_83
   + 6 x_24 * x_86 + 50 x_24 * x_89 + 28 x_24 * x_92 + 64 x_24 * x_94
   + 50 x_24 * x_95 + 84 x_24 * x_100 + 76 x_25 * x_31 + 78 x_25 * x_36
   + 92 x_25 * x_38 + 44 x_25 * x_42 + 48 x_25 * x_45 + 62 x_25 * x_48
   + 4 x_25 * x_49 + 68 x_25 * x_51 + 46 x_25 * x_57 + 32 x_25 * x_60
   + 72 x_25 * x_61 + 42 x_25 * x_63 + 20 x_25 * x_70 + 14 x_25 * x_73
   + 50 x_25 * x_74 + 44 x_25 * x_76 + 88 x_25 * x_85 + 42 x_25 * x_86
   + 88 x_25 * x_87 + 66 x_25 * x_89 + 96 x_25 * x_91 + 48 x_25 * x_95
   + 52 x_25 * x_96 + 48 x_25 * x_97 + 28 x_26 * x_28 + 70 x_26 * x_29
   + 64 x_26 * x_31 + 2 x_26 * x_36 + 92 x_26 * x_40 + 100 x_26 * x_42
   + 42 x_26 * x_44 + 10 x_26 * x_54 + 20 x_26 * x_57 + 60 x_26 * x_62
   + 60 x_26 * x_64 + 78 x_26 * x_69 + 44 x_26 * x_70 + 88 x_26 * x_71
   + 100 x_26 * x_74 + 4 x_26 * x_82 + 98 x_26 * x_84 + 64 x_26 * x_87
   + 88 x_26 * x_94 + 92 x_26 * x_96 + 56 x_26 * x_97 + 56 x_27 * x_29
   + 62 x_27 * x_39 + 16 x_27 * x_40 + 60 x_27 * x_44 + 100 x_27 * x_46
   + 10 x_27 * x_53 + 42 x_27 * x_59 + 12 x_27 * x_62 + 28 x_27 * x_64
   + 76 x_27 * x_67 + 10 x_27 * x_70 + 34 x_27 * x_77 + 28 x_27 * x_78
   + 38 x_27 * x_79 + 74 x_27 * x_82 + 48 x_27 * x_83 + 48 x_27 * x_87
   + 84 x_27 * x_89 + 24 x_27 * x_91 + 80 x_27 * x_95 + 32 x_27 * x_99
   + 4 x_28 * x_35 + 2 x_28 * x_36 + 52 x_28 * x_40 + 22 x_28 * x_45
   + 44 x_28 * x_49 + 8 x_28 * x_50 + 48 x_28 * x_59 + 74 x_28 * x_67
   + 10 x_28 * x_72 + 94 x_28 * x_77 + 56 x_28 * x_78 + 14 x_28 * x_80
   + 24 x_28 * x_85 + 40 x_28 * x_88 + 46 x_28 * x_89 + 34 x_28 * x_96
   + 70 x_28 * x_97 + 30 x_28 * x_98 + 18 x_28 * x_99 + 40 x_29 * x_34
   + 98 x_29 * x_35 + 10 x_29 * x_39 + 8 x_29 * x_47 + 10 x_29 * x_53
   + 46 x_29 * x_63 + 56 x_29 * x_70 + 2 x_29 * x_73 + 60 x_29 * x_76
   + 16 x_29 * x_81 + 38 x_29 * x_83 + 28 x_29 * x_86 + 6 x_29 * x_90
   + 100 x_29 * x_92 + 8 x_30 * x_33 + 80 x_30 * x_39 + 48 x_30 * x_44
   + 66 x_30 * x_45 + 34 x_30 * x_46 + 70 x_30 * x_50 + 22 x_30 * x_53
   + 84 x_30 * x_61 + 24 x_30 * x_85 + 52 x_30 * x_87 + 22 x_30 * x_90
   + 46 x_31 * x_46 + 42 x_31 * x_56 + 50 x_31 * x_58 + 82 x_31 * x_63
   + 54 x_31 * x_65 + 72 x_31 * x_68 + 18 x_31 * x_70 + 76 x_31 * x_71
   + 8 x_31 * x_72 + 16 x_31 * x_81 + 22 x_31 * x_93 + 68 x_31 * x_97
   + 68 x_32 * x_33 + 86 x_32 * x_34 + 18 x_32 * x_37 + 68 x_32 * x_38
   + 54 x_32 * x_41 + 72 x_32 * x_43 + 88 x_32 * x_51 + 82 x_32 * x_56
   + 38 x_32 * x_59 + 90 x_32 * x_60 + 38 x_32 * x_63 + 64 x_32 * x_75
   + 36 x_32 * x_76 + 64 x_32 * x_81 + 44 x_32 * x_83 + 94 x_33 * x_39
   + 52 x_33 * x_50 + 20 x_33 * x_55 + 90 x_33 * x_59 + 10 x_33 * x_60
   + 22 x_33 * x_61 + 60 x_33 * x_70 + 76 x_33 * x_72 + 46 x_33 * x_74
   + 84 x_33 * x_75 + 20 x_33 * x_77 + 70 x_33 * x_81 + 84 x_33 * x_87
   + 8 x_33 * x_90 + 52 x_33 * x_93 + 2 x_33 * x_95 + 76 x_33 * x_98
   + 42 x_34 * x_37 + 10 x_34 * x_38 + 38 x_34 * x_41 + 94 x_34 * x_46
   + 36 x_34 * x_48 + 94 x_34 * x_51 + 84 x_34 * x_52 + 54 x_34 * x_64
   + 30 x_34 * x_65 + 56 x_34 * x_68 + 28 x_34 * x_73 + 36 x_34 * x_74
   + 100 x_34 * x_80 + 36 x_34 * x_91 + 60 x_34 * x_92 + 20 x_34 * x_95
   + 66 x_34 * x_97 + 80 x_34 * x_99 + 26 x_35 * x_44 + 14 x_35 * x_46
   + 20 x_35 * x_50 + 60 x_35 * x_54 + 38 x_35 * x_65 + 64 x_35 * x_67
   + 18 x_35 * x_68 + 100 x_35 * x_78 + 60 x_35 * x_81 + 12 x_35 * x_83
   + 86 x_35 * x_87 + 16 x_35 * x_96 + 66 x_35 * x_98 + 24 x_35 * x_99
   + 16 x_35 * x_100 + 94 x_36 * x_37 + 82 x_36 * x_39 + 74 x_36 * x_47
   + 30 x_36 * x_50 + 80 x_36 * x_58 + 36 x_36 * x_65 + 54 x_36 * x_68
   + 34 x_36 * x_72 + 36 x_36 * x_75 + 14 x_36 * x_76 + 92 x_36 * x_89
   + 40 x_36 * x_97 + 30 x_36 * x_98 + 14 x_37 * x_38 + 2 x_37 * x_41
   + 36 x_37 * x_45 + 10 x_37 * x_47 + 36 x_37 * x_48 + 16 x_37 * x_56
   + 94 x_37 * x_57 + 94 x_37 * x_65 + 30 x_37 * x_66 + 68 x_37 * x_73
   + 8 x_37 * x_79 + 6 x_37 * x_80 + 68 x_37 * x_82 + 76 x_37 * x_92
   + 50 x_37 * x_95 + 28 x_37 * x_97 + 4 x_37 * x_99 + 72 x_38 * x_41
   + 84 x_38 * x_42 + 2 x_38 * x_51 + 82 x_38 * x_60 + 98 x_38 * x_64
   + 56 x_38 * x_72 + 30 x_38 * x_78 + 54 x_38 * x_80 + 82 x_38 * x_84
   + 34 x_38 * x_96 + 56 x_38 * x_98 + 36 x_38 * x_99 + 10 x_39 * x_43
   + 4 x_39 * x_46 + 100 x_39 * x_57 + 60 x_39 * x_64 + 24 x_39 * x_69
   + 70 x_39 * x_70 + 14 x_39 * x_74 + 72 x_39 * x_83 + 10 x_39 * x_85
   + 58 x_39 * x_86 + 50 x_39 * x_93 + 76 x_39 * x_96 + 60 x_39 * x_99
   + 88 x_40 * x_42 + 46 x_40 * x_47 + 24 x_40 * x_50 + 84 x_40 * x_57
   + 48 x_40 * x_60 + 64 x_40 * x_61 + 70 x_40 * x_63 + 52 x_40 * x_67
   + 70 x_40 * x_71 + 56 x_40 * x_76 + 66 x_40 * x_77 + 58 x_40 * x_85
   + 44 x_40 * x_91 + 62 x_40 * x_93 + 22 x_40 * x_96 + 14 x_40 * x_97
   + 4 x_40 * x_100 + 34 x_41 * x_46 + 78 x_41 * x_48 + 86 x_41 * x_49
   + 2 x_41 * x_50 + 2 x_41 * x_53 + 28 x_41 * x_59 + 88 x_41 * x_61
   + 84 x_41 * x_65 + 20 x_41 * x_70 + 84 x_41 * x_73 + 2 x_41 * x_74
   + 90 x_41 * x_81 + 8 x_41 * x_84 + 8 x_41 * x_89 + 52 x_41 * x_91
   + 18 x_41 * x_94 + 38 x_41 * x_96 + 34 x_41 * x_98 + 96 x_41 * x_99
   + 14 x_42 * x_60 + 14 x_42 * x_61 + 80 x_42 * x_64 + 68 x_42 * x_65
   + 38 x_42 * x_72 + 6 x_42 * x_75 + 6 x_42 * x_76 + 92 x_42 * x_78
   + 8 x_42 * x_83 + 44 x_42 * x_94 + 18 x_42 * x_95 + 12 x_42 * x_99
   + 70 x_42 * x_100 + 46 x_43 * x_44 + 74 x_43 * x_45 + 62 x_43 * x_46
   + 82 x_43 * x_54 + 80 x_43 * x_56 + 82 x_43 * x_63 + 30 x_43 * x_65
   + 56 x_43 * x_66 + 38 x_43 * x_68 + 84 x_43 * x_71 + 26 x_43 * x_78
   + 50 x_43 * x_81 + 34 x_43 * x_82 + 12 x_43 * x_87 + 44 x_43 * x_88
   + 30 x_43 * x_94 + 60 x_43 * x_96 + 6 x_44 * x_45 + 22 x_44 * x_49
   + 20 x_44 * x_51 + 30 x_44 * x_72 + 8 x_44 * x_74 + 28 x_44 * x_79
   + 18 x_44 * x_81 + 54 x_44 * x_84 + 44 x_44 * x_88 + 22 x_44 * x_89
   + 92 x_44 * x_92 + 42 x_45 * x_48 + 96 x_45 * x_50 + 30 x_45 * x_51
   + 24 x_45 * x_52 + 26 x_45 * x_70 + 32 x_45 * x_71 + 50 x_45 * x_72
   + 90 x_45 * x_73 + 44 x_45 * x_79 + 26 x_45 * x_92 + 42 x_45 * x_95
   + 100 x_45 * x_97 + 28 x_46 * x_48 + 76 x_46 * x_54 + 94 x_46 * x_58
   + 38 x_46 * x_62 + 38 x_46 * x_72 + 88 x_46 * x_75 + 70 x_46 * x_85
   + 94 x_46 * x_87 + 90 x_46 * x_93 + 38 x_46 * x_94 + 94 x_47 * x_49
   + 78 x_47 * x_50 + 28 x_47 * x_51 + 36 x_47 * x_53 + 38 x_47 * x_55
   + 58 x_47 * x_56 + 100 x_47 * x_58 + 22 x_47 * x_72 + 38 x_47 * x_76
   + 40 x_47 * x_81 + 36 x_47 * x_83 + 84 x_47 * x_84 + 50 x_47 * x_97
   + 82 x_48 * x_50 + 32 x_48 * x_53 + 58 x_48 * x_58 + 72 x_48 * x_61
   + 70 x_48 * x_62 + 58 x_48 * x_69 + 88 x_48 * x_72 + 52 x_48 * x_80
   + 18 x_48 * x_81 + 16 x_48 * x_88 + 84 x_48 * x_100 + 26 x_49 * x_50
   + 2 x_49 * x_62 + 98 x_49 * x_65 + 46 x_49 * x_69 + 6 x_49 * x_74
   + 8 x_49 * x_77 + 94 x_49 * x_80 + 16 x_49 * x_89 + 18 x_49 * x_90
   + 12 x_49 * x_91 + 40 x_49 * x_93 + 44 x_49 * x_96 + 68 x_49 * x_98
   + 8 x_49 * x_100 + 28 x_50 * x_65 + 50 x_50 * x_66 + 92 x_50 * x_69
   + 100 x_50 * x_75 + 40 x_50 * x_81 + 66 x_50 * x_85 + 8 x_50 * x_93
   + 34 x_50 * x_95 + 8 x_50 * x_97 + 50 x_51 * x_65 + 24 x_51 * x_66
   + 30 x_51 * x_69 + 52 x_51 * x_74 + 96 x_51 * x_76 + 24 x_51 * x_77
   + 90 x_51 * x_78 + 66 x_51 * x_83 + 38 x_51 * x_87 + 16 x_51 * x_90
   + 50 x_51 * x_91 + 82 x_51 * x_93 + 32 x_51 * x_95 + 46 x_51 * x_99
   + 94 x_52 * x_56 + 46 x_52 * x_58 + 54 x_52 * x_64 + 28 x_52 * x_69
   + 78 x_52 * x_74 + 66 x_52 * x_79 + 46 x_52 * x_90 + 30 x_52 * x_93
   + 46 x_52 * x_94 + 28 x_52 * x_96 + 46 x_52 * x_98 + 4 x_53 * x_56
   + 68 x_53 * x_59 + 40 x_53 * x_61 + 8 x_53 * x_72 + 56 x_53 * x_73
   + 44 x_53 * x_74 + 30 x_53 * x_83 + 26 x_53 * x_93 + 56 x_53 * x_98
   + 38 x_54 * x_57 + 24 x_54 * x_62 + 58 x_54 * x_63 + 12 x_54 * x_65
   + 78 x_54 * x_77 + 96 x_54 * x_78 + 72 x_54 * x_79 + 20 x_54 * x_85
   + 4 x_54 * x_88 + 48 x_54 * x_94 + 70 x_54 * x_98 + 96 x_55 * x_56
   + 2 x_55 * x_62 + 4 x_55 * x_63 + 12 x_55 * x_64 + 28 x_55 * x_71
   + 6 x_55 * x_74 + 48 x_55 * x_78 + 38 x_55 * x_83 + 52 x_55 * x_85
   + 50 x_55 * x_88 + 20 x_55 * x_89 + 42 x_55 * x_90 + 62 x_55 * x_100
   + 36 x_56 * x_62 + 92 x_56 * x_74 + 64 x_56 * x_75 + 92 x_56 * x_77
   + 48 x_56 * x_79 + 82 x_56 * x_93 + 72 x_56 * x_95 + 94 x_56 * x_97
   + 94 x_56 * x_99 + 60 x_57 * x_64 + 16 x_57 * x_67 + 10 x_57 * x_73
   + 62 x_57 * x_74 + 14 x_57 * x_75 + 94 x_57 * x_85 + 12 x_57 * x_86
   + 76 x_57 * x_87 + 32 x_58 * x_62 + 60 x_58 * x_68 + 2 x_58 * x_73
   + 56 x_58 * x_79 + 74 x_58 * x_81 + 70 x_58 * x_82 + 10 x_58 * x_93
   + 72 x_58 * x_98 + 100 x_58 * x_100 + 28 x_59 * x_64 + 44 x_59 * x_69
   + 96 x_59 * x_73 + 10 x_59 * x_78 + 46 x_59 * x_85 + 96 x_59 * x_87
   + 88 x_59 * x_89 + 24 x_59 * x_91 + 90 x_59 * x_92 + 48 x_59 * x_93
   + 74 x_59 * x_99 + 38 x_60 * x_61 + 96 x_60 * x_65 + 88 x_60 * x_70
   + 18 x_60 * x_81 + 90 x_60 * x_84 + 20 x_60 * x_85 + 20 x_60 * x_95
   + 66 x_60 * x_97 + 36 x_60 * x_98 + 72 x_60 * x_99 + 52 x_61 * x_62
   + 62 x_61 * x_63 + 70 x_61 * x_68 + 4 x_61 * x_70 + 16 x_61 * x_77
   + 82 x_61 * x_78 + 84 x_61 * x_82 + 70 x_61 * x_84 + 100 x_61 * x_85
   + 24 x_61 * x_89 + 78 x_61 * x_90 + 14 x_62 * x_64 + 88 x_62 * x_66
   + 62 x_62 * x_67 + 6 x_62 * x_71 + 52 x_62 * x_73 + 96 x_62 * x_75
   + 36 x_62 * x_77 + 12 x_62 * x_81 + 16 x_62 * x_82 + 80 x_62 * x_85
   + 8 x_62 * x_86 + 42 x_62 * x_91 + 36 x_62 * x_92 + 76 x_63 * x_65
   + 76 x_63 * x_66 + 94 x_63 * x_69 + 76 x_63 * x_72 + 30 x_63 * x_74
   + 84 x_63 * x_76 + 44 x_63 * x_93 + 60 x_63 * x_97 + 44 x_64 * x_66
   + 72 x_64 * x_71 + 22 x_64 * x_73 + 40 x_64 * x_74 + 66 x_64 * x_77
   + 20 x_64 * x_80 + 44 x_64 * x_81 + 6 x_64 * x_84 + 48 x_64 * x_90
   + 34 x_64 * x_93 + 64 x_64 * x_94 + 56 x_64 * x_96 + 90 x_64 * x_99
   + 94 x_65 * x_68 + 88 x_65 * x_76 + 56 x_65 * x_78 + 62 x_65 * x_83
   + 58 x_65 * x_85 + 92 x_65 * x_96 + 64 x_65 * x_99 + 60 x_66 * x_69
   + 82 x_66 * x_75 + 90 x_66 * x_80 + 64 x_66 * x_95 + 44 x_66 * x_98
   + 100 x_66 * x_99 + 60 x_67 * x_69 + 88 x_67 * x_73 + 52 x_67 * x_75
   + 46 x_67 * x_82 + 70 x_67 * x_93 + 6 x_67 * x_94 + 62 x_68 * x_70
   + 14 x_68 * x_71 + 18 x_68 * x_78 + 86 x_68 * x_81 + 68 x_68 * x_83
   + 76 x_68 * x_93 + 86 x_69 * x_73 + 22 x_69 * x_74 + 6 x_69 * x_81
   + 60 x_69 * x_83 + 38 x_69 * x_86 + 40 x_69 * x_87 + 38 x_69 * x_93
   + 76 x_69 * x_96 + 4 x_69 * x_98 + 28 x_69 * x_100 + 24 x_70 * x_75
   + 94 x_70 * x_86 + 62 x_70 * x_88 + 32 x_70 * x_95 + 50 x_71 * x_72
   + 6 x_71 * x_73 + 40 x_71 * x_82 + 36 x_71 * x_84 + 48 x_71 * x_91
   + 32 x_71 * x_92 + 18 x_71 * x_98 + 32 x_72 * x_73 + 28 x_72 * x_79
   + 98 x_72 * x_85 + 52 x_72 * x_86 + 6 x_72 * x_87 + 18 x_72 * x_88
   + 30 x_72 * x_89 + 98 x_72 * x_90 + 4 x_72 * x_92 + 82 x_72 * x_98
   + 38 x_72 * x_99 + 34 x_73 * x_74 + 94 x_73 * x_75 + 18 x_73 * x_81
   + 98 x_73 * x_82 + 96 x_73 * x_86 + 8 x_73 * x_89 + 12 x_73 * x_93
   + 24 x_74 * x_81 + 38 x_74 * x_85 + 86 x_74 * x_86 + 8 x_74 * x_89
   + 6 x_74 * x_94 + 76 x_74 * x_97 + 60 x_74 * x_98 + 34 x_75 * x_79
   + 16 x_75 * x_82 + 2 x_75 * x_88 + 42 x_75 * x_97 + 96 x_75 * x_98
   + 50 x_75 * x_99 + 60 x_76 * x_79 + 68 x_76 * x_82 + 28 x_76 * x_97
   + 62 x_76 * x_99 + 24 x_77 * x_80 + 18 x_77 * x_92 + 68 x_78 * x_79
   + 46 x_78 * x_80 + 48 x_78 * x_81 + 32 x_78 * x_92 + 2 x_78 * x_98
   + 54 x_79 * x_80 + 96 x_79 * x_85 + 40 x_79 * x_90 + 70 x_79 * x_99
   + 58 x_80 * x_87 + 86 x_81 * x_82 + 68 x_81 * x_85 + 34 x_81 * x_86
   + 68 x_81 * x_89 + 32 x_81 * x_94 + 86 x_81 * x_96 + 52 x_81 * x_98
   + 92 x_81 * x_99 + 64 x_82 * x_91 + 40 x_82 * x_93 + 14 x_82 * x_95
   + 36 x_82 * x_96 + 22 x_83 * x_84 + 52 x_83 * x_91 + 38 x_83 * x_96
   + 86 x_83 * x_97 + 72 x_84 * x_90 + 36 x_84 * x_95 + 40 x_84 * x_96
   + 74 x_84 * x_100 + 2 x_85 * x_100 + 68 x_86 * x_93 + 48 x_86 * x_98
   + 84 x_86 * x_99 + 44 x_87 * x_92 + 88 x_87 * x_94 + 10 x_88 * x_96
   + 90 x_88 * x_97 + 34 x_89 * x_94 + 2 x_89 * x_99 + 54 x_89 * x_100
   + 72 x_90 * x_95 + 28 x_91 * x_98 + 72 x_91 * x_99 + 92 x_91 * x_100
   + 42 x_92 * x_93 + 70 x_92 * x_94 + 10 x_92 * x_99 + 36 x_95 * x_96
   + 4 x_98 * x_99 + 84 x_99 * x_100 ] / 2 
Subject To
 R0: 8 x_1 + x_2 + x_3 + 20 x_4 + 22 x_5 + 8 x_6 + 11 x_7 + 15 x_8 + 25 x_9
   + 9 x_10 + 23 x_11 + 18 x_12 + 14 x_13 + 16 x_14 + 9 x_15 + 4 x_16
   + 25 x_17 + 17 x_18 + 19 x_19 + 3 x_20 + x_21 + 20 x_22 + 6 x_23
   + 6 x_24 + 15 x_25 + 19 x_26 + 25 x_27 + 9 x_28 + 24 x_29 + 3 x_30
   + 15 x_31 + 25 x_32 + 6 x_33 + 12 x_34 + 18 x_35 + 7 x_36 + 9 x_37
   + 10 x_38 + 22 x_39 + 8 x_40 + 15 x_41 + 17 x_42 + 2 x_43 + 16 x_44
   + 18 x_45 + 24 x_46 + 15 x_47 + 4 x_48 + 25 x_49 + 5 x_50 + 23 x_51
   + 18 x_52 + 9 x_53 + 18 x_54 + 21 x_55 + 24 x_56 + 7 x_57 + 19 x_58
   + 24 x_59 + x_60 + 5 x_61 + 18 x_62 + 20 x_63 + 9 x_64 + 11 x_65
   + 7 x_66 + 11 x_67 + 24 x_68 + 21 x_69 + 18 x_70 + 13 x_71 + 21 x_72
   + 13 x_73 + 25 x_74 + 12 x_75 + 15 x_76 + 14 x_77 + 13 x_78 + 15 x_79
   + 2 x_80 + 17 x_81 + 24 x_82 + 17 x_83 + 21 x_84 + 8 x_85 + 4 x_86
   + 11 x_87 + 16 x_88 + 21 x_89 + 13 x_90 + 3 x_91 + 17 x_92 + 17 x_93
   + 7 x_94 + 2 x_95 + 5 x_96 + 5 x_97 + 23 x_98 + 11 x_99 + 18 x_100
   <= 399
Bounds
Binaries
 x_1 x_2 x_3 x_4 x_5 x_6 x_7 x_8 x_9 x_10 x_11 x_12 x_13 x_14 x_15 x_16
 x_17 x_18 x_19 x_20 x_21 x_22 x_23 x_24 x_25 x_26 x_27 x_28 x_29 x_30 x_31
 x_32 x_33 x_34 x_35 x_36 x_37 x_38 x_39 x_40 x_41 x_42 x_43 x_44 x_45 x_46
 x_47 x_48 x_49 x_50 x_51 x_52 x_53 x_54 x_55 x_56 x_57 x_58 x_59 x_60 x_61
 x_62 x_63 x_64 x_65 x_66 x_67 x_68 x_69 x_70 x_71 x_72 x_73 x_74 x_75 x_76
 x_77 x_78 x_79 x_80 x_81 x_82 x_83 x_84 x_85 x_86 x_87 x_88 x_89 x_90 x_91
 x_92 x_93 x_94 x_95 x_96 x_97 x_98 x_99 x_100
End
